100
128
48
36
1
14
58
52
10
20
49
21
22
45
42
27
32
44
52
1
45
1
27
59
41
39
16
57
18
52
21
14
14
53
62
34
19
31
11
15
33
28
21
13
14
12
19
43
44
26
26
11
53
25
2
2
47
15
4
1
3
62
15
16
21
19
1
2
22
16
36
15
4
35
15
2
22
14
12
5
4
25
21
29
13
25
38
36
6
3
19
31
35
38
55
48
45
1
31
32
62
30